pair_style     lcbop
pair_coeff     * * ../potentials/C.lcbop C
