
if   "${metal} == Al99" then "variable  lattice_cons equal 4.05 " &
elif "${metal} == Al03"      "variable  lattice_cons equal 4.05 " &
elif "${metal} == Ni"        "variable  lattice_cons equal 3.52 " &
elif "${metal} == Cu"        "variable  lattice_cons equal 3.615" &
elif "${metal} == Ag"        "variable  lattice_cons equal 4.09 " &
elif "${metal} == Au"        "variable  lattice_cons equal 4.08 " &
else "print '------- This is nothing ----'"   "quit"
print '------- This is ${metal} ---------'

variable        timestep    equal 0.002
variable        u  uloop 480

atom_modify     map array sort 0 0.0    # build mapping and turn off sorting

variable        nStep   index 5064
read_restart    ./res/neb.${nStep}.$u.restart
reset_timestep  0
# -------- potentials & neighbor -------
pair_style      eam/alloy
#pair_coeff      * * Cu_mishin1.eam.alloy Cu
if   "${metal} == Al99" then "pair_coeff  * * ../potentials/Al99.eam.alloy Al" &
elif "${metal} == Al03"      "pair_coeff  * * ../potentials/Al03.eam.alloy Al" &
elif "${metal} == Ni"        "pair_coeff  * * ../potentials/Ni99.eam.alloy Ni" &
elif "${metal} == Cu"        "pair_coeff  * * ../potentials/Cu_mishin1.eam.alloy Cu" &
elif "${metal} == Ag"        "pair_coeff  * * ../potentials/Ag.eam.alloy Ag" &
elif "${metal} == Au"        "pair_coeff  * * ../potentials/Au-Grochola-JCP05.eam.alloy Au" &
else "quit"

neighbor        1.0 bin
neigh_modify    every 1 delay 5 check yes
# --------------------------------------

thermo          100
thermo_style    custom step etotal pe ke temp press
thermo_modify   format float %25.18g

timestep        ${timestep}

dump            1 all custom 5000 neb.*.$u.lammpstrj id x y z
dump_modify     1 sort id
restart         5000 neb.*.$u.restart

fix             1 boundary setforce 0 0 0
variable        kspring     index 1.0
fix             2 mobile neb ${kspring}

min_style       quickmin
variable        etol    index 0.0
variable        ftol    index 0.01
variable        nudgeStep index 400000
variable        climbStep index 400000
neb             ${etol} ${ftol} ${nudgeStep} ${climbStep} 100 none

